TIME              STRAIN_XX              STRAIN_YY             STRAIN_ZZ             STRAIN_XY STRAIN_XZ STRAIN_YZ           STRESS_XX           STRESS_YY           STRESS_ZZ          STRESS_XY STRESS_XZ STRESS_YZ
 0.0                    0.0                    0.0                   0.0                   0.0       0.0       0.0                 0.0                 0.0                 0.0                0.0       0.0       0.0
 1.0                    0.0                    0.0                   0.0 0.0035355339059327372       0.0       0.0                 0.0                 0.0                 0.0  707106.7811865475       0.0       0.0
 2.0  0.0022963966338592308  0.0022963966338592308 0.0022963966338592308 0.0035355339059327372       0.0       0.0  816496.58092772611  816496.58092772611  816496.58092772611                0.0       0.0       0.0
